num_bands = 60
num_wann  = 18
exclude_bands = 1-8

dis_num_iter = 200
num_iter = 0

dis_froz_max = 18.2237
dis_froz_min = -200

spinors = .true.

begin projections
Fe:sp3d2;dxy;dxz;dyz
end projections

bands_plot = .true.
write_hr = .true.
wannier_plot = .false.
fermi_surface_plot = .false.

begin unit_cell_cart
ang
   1.4340702413     1.4340702413     1.4340702413
  -1.4340702413     1.4340702413     1.4340702413
  -1.4340702413    -1.4340702413     1.4340702413
end unit_cell_cart

begin atoms_frac
Fe  0.0  0.0  0.0
end atoms_frac

mp_grid:4 4 4

begin kpoints
   0.0000000000    0.0000000000    0.0000000000    0.0156250000
   0.0000000000    0.0000000000    0.2500000000    0.0156250000
   0.0000000000    0.0000000000    0.5000000000    0.0156250000
   0.0000000000    0.0000000000    0.7500000000    0.0156250000
   0.0000000000    0.2500000000    0.0000000000    0.0156250000
   0.0000000000    0.2500000000    0.2500000000    0.0156250000
   0.0000000000    0.2500000000    0.5000000000    0.0156250000
   0.0000000000    0.2500000000    0.7500000000    0.0156250000
   0.0000000000    0.5000000000    0.0000000000    0.0156250000
   0.0000000000    0.5000000000    0.2500000000    0.0156250000
   0.0000000000    0.5000000000    0.5000000000    0.0156250000
   0.0000000000    0.5000000000    0.7500000000    0.0156250000
   0.0000000000    0.7500000000    0.0000000000    0.0156250000
   0.0000000000    0.7500000000    0.2500000000    0.0156250000
   0.0000000000    0.7500000000    0.5000000000    0.0156250000
   0.0000000000    0.7500000000    0.7500000000    0.0156250000
   0.2500000000    0.0000000000    0.0000000000    0.0156250000
   0.2500000000    0.0000000000    0.2500000000    0.0156250000
   0.2500000000    0.0000000000    0.5000000000    0.0156250000
   0.2500000000    0.0000000000    0.7500000000    0.0156250000
   0.2500000000    0.2500000000    0.0000000000    0.0156250000
   0.2500000000    0.2500000000    0.2500000000    0.0156250000
   0.2500000000    0.2500000000    0.5000000000    0.0156250000
   0.2500000000    0.2500000000    0.7500000000    0.0156250000
   0.2500000000    0.5000000000    0.0000000000    0.0156250000
   0.2500000000    0.5000000000    0.2500000000    0.0156250000
   0.2500000000    0.5000000000    0.5000000000    0.0156250000
   0.2500000000    0.5000000000    0.7500000000    0.0156250000
   0.2500000000    0.7500000000    0.0000000000    0.0156250000
   0.2500000000    0.7500000000    0.2500000000    0.0156250000
   0.2500000000    0.7500000000    0.5000000000    0.0156250000
   0.2500000000    0.7500000000    0.7500000000    0.0156250000
   0.5000000000    0.0000000000    0.0000000000    0.0156250000
   0.5000000000    0.0000000000    0.2500000000    0.0156250000
   0.5000000000    0.0000000000    0.5000000000    0.0156250000
   0.5000000000    0.0000000000    0.7500000000    0.0156250000
   0.5000000000    0.2500000000    0.0000000000    0.0156250000
   0.5000000000    0.2500000000    0.2500000000    0.0156250000
   0.5000000000    0.2500000000    0.5000000000    0.0156250000
   0.5000000000    0.2500000000    0.7500000000    0.0156250000
   0.5000000000    0.5000000000    0.0000000000    0.0156250000
   0.5000000000    0.5000000000    0.2500000000    0.0156250000
   0.5000000000    0.5000000000    0.5000000000    0.0156250000
   0.5000000000    0.5000000000    0.7500000000    0.0156250000
   0.5000000000    0.7500000000    0.0000000000    0.0156250000
   0.5000000000    0.7500000000    0.2500000000    0.0156250000
   0.5000000000    0.7500000000    0.5000000000    0.0156250000
   0.5000000000    0.7500000000    0.7500000000    0.0156250000
   0.7500000000    0.0000000000    0.0000000000    0.0156250000
   0.7500000000    0.0000000000    0.2500000000    0.0156250000
   0.7500000000    0.0000000000    0.5000000000    0.0156250000
   0.7500000000    0.0000000000    0.7500000000    0.0156250000
   0.7500000000    0.2500000000    0.0000000000    0.0156250000
   0.7500000000    0.2500000000    0.2500000000    0.0156250000
   0.7500000000    0.2500000000    0.5000000000    0.0156250000
   0.7500000000    0.2500000000    0.7500000000    0.0156250000
   0.7500000000    0.5000000000    0.0000000000    0.0156250000
   0.7500000000    0.5000000000    0.2500000000    0.0156250000
   0.7500000000    0.5000000000    0.5000000000    0.0156250000
   0.7500000000    0.5000000000    0.7500000000    0.0156250000
   0.7500000000    0.7500000000    0.0000000000    0.0156250000
   0.7500000000    0.7500000000    0.2500000000    0.0156250000
   0.7500000000    0.7500000000    0.5000000000    0.0156250000
   0.7500000000    0.7500000000    0.7500000000    0.0156250000
end kpoints

Begin Kpoint_Path
R  0.5  0.5  0.5   G  0.0  0.0  0.0
G  0.0  0.0  0.0   X  0.5  0.0  0.0
X  0.5  0.0  0.0   M  0.5  0.5  0.0
M  0.5  0.5  0.0   G  0.0  0.0  0.0
End Kpoint_Path
